100 90 10
0 1 0
1 2 0
2 3 0
3 4 0
4 5 0
5 6 0
6 7 0
7 8 0
8 9 0
10 11 1
11 12 1
12 13 1
13 14 1
14 15 1
15 16 1
16 17 1
17 18 1
18 19 1
20 21 2
21 22 2
22 23 2
23 24 2
24 25 2
25 26 2
26 27 2
27 28 2
28 29 2
30 31 3
31 32 3
32 33 3
33 34 3
34 35 3
35 36 3
36 37 3
37 38 3
38 39 3
40 41 4
41 42 4
42 43 4
43 44 4
44 45 4
45 46 4
46 47 4
47 48 4
48 49 4
50 51 5
51 52 5
52 53 5
53 54 5
54 55 5
55 56 5
56 57 5
57 58 5
58 59 5
60 61 6
61 62 6
62 63 6
63 64 6
64 65 6
65 66 6
66 67 6
67 68 6
68 69 6
70 71 7
71 72 7
72 73 7
73 74 7
74 75 7
75 76 7
76 77 7
77 78 7
78 79 7
80 81 8
81 82 8
82 83 8
83 84 8
84 85 8
85 86 8
86 87 8
87 88 8
88 89 8
90 91 9
91 92 9
92 93 9
93 94 9
94 95 9
95 96 9
96 97 9
97 98 9
98 99 9
1 1 21
1 6 71
1 9 16
1 8 52
1 7 26
1 2 34
1 0 53
1 4 21
1 3 55
1 5 95
1 4 55
1 2 31
1 5 98
1 9 79
1 0 12
1 7 66
1 1 42
1 8 77
1 6 77
1 3 39
1 3 34
1 2 64
1 8 62
1 1 19
1 4 92
1 9 79
1 7 43
1 6 54
1 0 83
1 5 37
1 1 87
1 3 69
1 2 87
1 7 38
1 8 24
1 9 83
1 6 41
1 0 93
1 5 77
1 4 60
1 2 98
1 0 44
1 5 25
1 6 75
1 7 43
1 1 49
1 4 96
1 9 77
1 3 17
1 8 79
1 2 35
1 3 76
1 5 28
1 9 10
1 4 61
1 6 9
1 0 95
1 8 35
1 1 7
1 7 95
1 3 16
1 2 59
1 0 46
1 1 91
1 9 43
1 8 50
1 6 52
1 5 59
1 4 28
1 7 27
1 1 45
1 0 87
1 3 41
1 4 20
1 6 54
1 9 43
1 8 14
1 5 9
1 2 39
1 7 71
1 4 33
1 2 37
1 8 66
1 5 33
1 3 26
1 7 8
1 1 28
1 6 89
1 9 42
1 0 78
1 8 69
1 9 81
1 2 94
1 4 96
1 3 27
1 0 69
1 7 45
1 6 78
1 1 74
1 5 84